c 4x12 torusGrid
p tw 48 192
1 2
1 12
1 13
1 37
2 1
2 3
2 14
2 38
3 2
3 4
3 15
3 39
4 3
4 5
4 16
4 40
5 4
5 6
5 17
5 41
6 5
6 7
6 18
6 42
7 6
7 8
7 19
7 43
8 7
8 9
8 20
8 44
9 8
9 10
9 21
9 45
10 9
10 11
10 22
10 46
11 10
11 12
11 23
11 47
12 1
12 11
12 24
12 48
13 1
13 14
13 24
13 25
14 2
14 13
14 15
14 26
15 3
15 14
15 16
15 27
16 4
16 15
16 17
16 28
17 5
17 16
17 18
17 29
18 6
18 17
18 19
18 30
19 7
19 18
19 20
19 31
20 8
20 19
20 21
20 32
21 9
21 20
21 22
21 33
22 10
22 21
22 23
22 34
23 11
23 22
23 24
23 35
24 12
24 13
24 23
24 36
25 13
25 26
25 36
25 37
26 14
26 25
26 27
26 38
27 15
27 26
27 28
27 39
28 16
28 27
28 29
28 40
29 17
29 28
29 30
29 41
30 18
30 29
30 31
30 42
31 19
31 30
31 32
31 43
32 20
32 31
32 33
32 44
33 21
33 32
33 34
33 45
34 22
34 33
34 35
34 46
35 23
35 34
35 36
35 47
36 24
36 25
36 35
36 48
37 1
37 25
37 38
37 48
38 2
38 26
38 37
38 39
39 3
39 27
39 38
39 40
40 4
40 28
40 39
40 41
41 5
41 29
41 40
41 42
42 6
42 30
42 41
42 43
43 7
43 31
43 42
43 44
44 8
44 32
44 43
44 45
45 9
45 33
45 44
45 46
46 10
46 34
46 45
46 47
47 11
47 35
47 46
47 48
48 12
48 36
48 37
48 47
